robust/generate/spp_dkp_Lefebvre_et_al_2026/src/shortest_path_6_1.kp
43
123

[0.59 3.12 0.68 1.23 1.68 4.4 3.41 2.77 0.15 3.76 2.02 4.11 1.3 0.29 4.44 1.13 2.08 1.62 0.39 4.32 4.35 4.98 1.98 4.89]

[58 35 35 51 73 49 30 85 39 82 92 58 4 58 90 76 8 95 57 67 18 96 70 28]
