robust/generate/spp_dkp_Lefebvre_et_al_2026/src/shortest_path_6_1.lp
\ Model sp_6_1
\ LP format - for model browsing. Use MPS format to capture full model detail.
\ Signature: 0x1a3fed327f855427
Minimize
  26.93 y[0,2] + 65.19 y[0,3] + 23.41 y[0,5] + 80.53 y[1,2] + 43.68 y[1,3]
   + 4 y[1,4] + 86.31 y[1,5] + 26.93 y[2,0] + 80.53 y[2,1] + 38.95 y[2,3]
   + 82.49 y[2,4] + 6.08 y[2,5] + 65.19 y[3,0] + 43.68 y[3,1]
   + 38.95 y[3,2] + 44.94 y[3,4] + 44.2 y[3,5] + 4 y[4,1] + 82.49 y[4,2]
   + 44.94 y[4,3] + 23.41 y[5,0] + 86.31 y[5,1] + 6.08 y[5,2] + 44.2 y[5,3]
   + 2.693 r[0,2] + 6.519 r[0,3] + 2.341 r[0,5] + 8.053 r[1,2]
   + 4.368 r[1,3] + 0.4 r[1,4] + 8.631 r[1,5] + 2.693 r[2,0] + 8.053 r[2,1]
   + 3.895 r[2,3] + 8.249 r[2,4] + 0.608 r[2,5] + 6.519 r[3,0]
   + 4.368 r[3,1] + 3.895 r[3,2] + 4.494 r[3,4] + 4.42 r[3,5] + 0.4 r[4,1]
   + 8.249 r[4,2] + 4.494 r[4,3] + 2.341 r[5,0] + 8.631 r[5,1]
   + 0.608 r[5,2] + 4.42 r[5,3]
Subject To
 flow_cons_inner_nodes[1]: - y[1,2] - y[1,3] - y[1,4] - y[1,5] + y[2,1]
   + y[3,1] + y[4,1] + y[5,1] = 0
 flow_cons_inner_nodes[2]: y[0,2] + y[1,2] - y[2,0] - y[2,1] - y[2,3]
   - y[2,4] - y[2,5] + y[3,2] + y[4,2] + y[5,2] = 0
 flow_cons_inner_nodes[3]: y[0,3] + y[1,3] + y[2,3] - y[3,0] - y[3,1]
   - y[3,2] - y[3,4] - y[3,5] + y[4,3] + y[5,3] = 0
 flow_cons_inner_nodes[5]: y[0,5] + y[1,5] + y[2,5] + y[3,5] - y[5,0]
   - y[5,1] - y[5,2] - y[5,3] = 0
 flow_cons_source: y[0,2] + y[0,3] + y[0,5] - y[2,0] - y[3,0] - y[5,0] = 1
 flow_cons_target: y[1,4] + y[2,4] + y[3,4] - y[4,1] - y[4,2] - y[4,3] = 1
 primal_lower: - 0.59 y[0,2] - 3.12 y[0,3] - 0.68 y[0,5] - 1.23 y[1,2]
   - 1.68 y[1,3] - 4.4 y[1,4] - 3.41 y[1,5] - 2.77 y[2,0] - 0.15 y[2,1]
   - 3.76 y[2,3] - 2.02 y[2,4] - 4.11 y[2,5] - 1.3 y[3,0] - 0.29 y[3,1]
   - 4.44 y[3,2] - 1.13 y[3,4] - 2.08 y[3,5] - 1.62 y[4,1] - 0.39 y[4,2]
   - 4.32 y[4,3] - 4.35 y[5,0] - 4.98 y[5,1] - 1.98 y[5,2] - 4.89 y[5,3]
   + 58 u[0,2] + 35 u[0,3] + 35 u[0,5] + 51 u[1,2] + 73 u[1,3] + 49 u[1,4]
   + 30 u[1,5] + 85 u[2,0] + 39 u[2,1] + 82 u[2,3] + 92 u[2,4] + 58 u[2,5]
   + 4 u[3,0] + 58 u[3,1] + 90 u[3,2] + 76 u[3,4] + 8 u[3,5] + 95 u[4,1]
   + 57 u[4,2] + 67 u[4,3] + 18 u[5,0] + 96 u[5,1] + 70 u[5,2] + 28 u[5,3]
   <= 123
 mccormick1[0,2]: - u[0,2] + r[0,2] <= 0
 mccormick1[0,3]: - u[0,3] + r[0,3] <= 0
 mccormick1[0,5]: - u[0,5] + r[0,5] <= 0
 mccormick1[1,2]: - u[1,2] + r[1,2] <= 0
 mccormick1[1,3]: - u[1,3] + r[1,3] <= 0
 mccormick1[1,4]: - u[1,4] + r[1,4] <= 0
 mccormick1[1,5]: - u[1,5] + r[1,5] <= 0
 mccormick1[2,0]: - u[2,0] + r[2,0] <= 0
 mccormick1[2,1]: - u[2,1] + r[2,1] <= 0
 mccormick1[2,3]: - u[2,3] + r[2,3] <= 0
 mccormick1[2,4]: - u[2,4] + r[2,4] <= 0
 mccormick1[2,5]: - u[2,5] + r[2,5] <= 0
 mccormick1[3,0]: - u[3,0] + r[3,0] <= 0
 mccormick1[3,1]: - u[3,1] + r[3,1] <= 0
 mccormick1[3,2]: - u[3,2] + r[3,2] <= 0
 mccormick1[3,4]: - u[3,4] + r[3,4] <= 0
 mccormick1[3,5]: - u[3,5] + r[3,5] <= 0
 mccormick1[4,1]: - u[4,1] + r[4,1] <= 0
 mccormick1[4,2]: - u[4,2] + r[4,2] <= 0
 mccormick1[4,3]: - u[4,3] + r[4,3] <= 0
 mccormick1[5,0]: - u[5,0] + r[5,0] <= 0
 mccormick1[5,1]: - u[5,1] + r[5,1] <= 0
 mccormick1[5,2]: - u[5,2] + r[5,2] <= 0
 mccormick1[5,3]: - u[5,3] + r[5,3] <= 0
 mccormick2[0,2]: - y[0,2] + r[0,2] <= 0
 mccormick2[0,3]: - y[0,3] + r[0,3] <= 0
 mccormick2[0,5]: - y[0,5] + r[0,5] <= 0
 mccormick2[1,2]: - y[1,2] + r[1,2] <= 0
 mccormick2[1,3]: - y[1,3] + r[1,3] <= 0
 mccormick2[1,4]: - y[1,4] + r[1,4] <= 0
 mccormick2[1,5]: - y[1,5] + r[1,5] <= 0
 mccormick2[2,0]: - y[2,0] + r[2,0] <= 0
 mccormick2[2,1]: - y[2,1] + r[2,1] <= 0
 mccormick2[2,3]: - y[2,3] + r[2,3] <= 0
 mccormick2[2,4]: - y[2,4] + r[2,4] <= 0
 mccormick2[2,5]: - y[2,5] + r[2,5] <= 0
 mccormick2[3,0]: - y[3,0] + r[3,0] <= 0
 mccormick2[3,1]: - y[3,1] + r[3,1] <= 0
 mccormick2[3,2]: - y[3,2] + r[3,2] <= 0
 mccormick2[3,4]: - y[3,4] + r[3,4] <= 0
 mccormick2[3,5]: - y[3,5] + r[3,5] <= 0
 mccormick2[4,1]: - y[4,1] + r[4,1] <= 0
 mccormick2[4,2]: - y[4,2] + r[4,2] <= 0
 mccormick2[4,3]: - y[4,3] + r[4,3] <= 0
 mccormick2[5,0]: - y[5,0] + r[5,0] <= 0
 mccormick2[5,1]: - y[5,1] + r[5,1] <= 0
 mccormick2[5,2]: - y[5,2] + r[5,2] <= 0
 mccormick2[5,3]: - y[5,3] + r[5,3] <= 0
 mccormick3[0,2]: - y[0,2] - u[0,2] + r[0,2] >= -1
 mccormick3[0,3]: - y[0,3] - u[0,3] + r[0,3] >= -1
 mccormick3[0,5]: - y[0,5] - u[0,5] + r[0,5] >= -1
 mccormick3[1,2]: - y[1,2] - u[1,2] + r[1,2] >= -1
 mccormick3[1,3]: - y[1,3] - u[1,3] + r[1,3] >= -1
 mccormick3[1,4]: - y[1,4] - u[1,4] + r[1,4] >= -1
 mccormick3[1,5]: - y[1,5] - u[1,5] + r[1,5] >= -1
 mccormick3[2,0]: - y[2,0] - u[2,0] + r[2,0] >= -1
 mccormick3[2,1]: - y[2,1] - u[2,1] + r[2,1] >= -1
 mccormick3[2,3]: - y[2,3] - u[2,3] + r[2,3] >= -1
 mccormick3[2,4]: - y[2,4] - u[2,4] + r[2,4] >= -1
 mccormick3[2,5]: - y[2,5] - u[2,5] + r[2,5] >= -1
 mccormick3[3,0]: - y[3,0] - u[3,0] + r[3,0] >= -1
 mccormick3[3,1]: - y[3,1] - u[3,1] + r[3,1] >= -1
 mccormick3[3,2]: - y[3,2] - u[3,2] + r[3,2] >= -1
 mccormick3[3,4]: - y[3,4] - u[3,4] + r[3,4] >= -1
 mccormick3[3,5]: - y[3,5] - u[3,5] + r[3,5] >= -1
 mccormick3[4,1]: - y[4,1] - u[4,1] + r[4,1] >= -1
 mccormick3[4,2]: - y[4,2] - u[4,2] + r[4,2] >= -1
 mccormick3[4,3]: - y[4,3] - u[4,3] + r[4,3] >= -1
 mccormick3[5,0]: - y[5,0] - u[5,0] + r[5,0] >= -1
 mccormick3[5,1]: - y[5,1] - u[5,1] + r[5,1] >= -1
 mccormick3[5,2]: - y[5,2] - u[5,2] + r[5,2] >= -1
 mccormick3[5,3]: - y[5,3] - u[5,3] + r[5,3] >= -1
Bounds
Binaries
 y[0,2] y[0,3] y[0,5] y[1,2] y[1,3] y[1,4] y[1,5] y[2,0] y[2,1] y[2,3]
 y[2,4] y[2,5] y[3,0] y[3,1] y[3,2] y[3,4] y[3,5] y[4,1] y[4,2] y[4,3]
 y[5,0] y[5,1] y[5,2] y[5,3] u[0,2] u[0,3] u[0,5] u[1,2] u[1,3] u[1,4]
 u[1,5] u[2,0] u[2,1] u[2,3] u[2,4] u[2,5] u[3,0] u[3,1] u[3,2] u[3,4]
 u[3,5] u[4,1] u[4,2] u[4,3] u[5,0] u[5,1] u[5,2] u[5,3] r[0,2] r[0,3]
 r[0,5] r[1,2] r[1,3] r[1,4] r[1,5] r[2,0] r[2,1] r[2,3] r[2,4] r[2,5]
 r[3,0] r[3,1] r[3,2] r[3,4] r[3,5] r[4,1] r[4,2] r[4,3] r[5,0] r[5,1]
 r[5,2] r[5,3]
End
